Route #1: 5 37 51 44 24 20 16 33 17 13 48 
Route #2: 26 15 14 53 42 18 10 8 23 2 
Route #3: 40 4 6 22 35 25 12 
Route #4: 29 46 49 43 3 38 
Route #5: 31 45 30 50 11 27 41 19 47 
Route #6: 52 9 39 36 28 
Route #7: 34 7 21 32 
cost 1052.99
